NAME : custom
COMMENT : Custom points
TYPE : TSP
DIMENSION : 15
EDGE_WEIGHT_TYPE : EUC_2D
NODE_COORD_SECTION
1 20 87
2 34 86
3 58 78
4 57 50
5 31 41
6 34 22
7 55 19
8 69 27
9 83 61
10 37 72
11 37 72
12 19 54
13 23 15
14 69 13
15 91 36
EOF
